p cnf 107 378
-4 2 0
-4 -3 0
-2 3 4 0
5 1 0
5 4 0
-1 -4 -5 0
8 -6 0
8 -7 0
6 7 -8 0
5 -8 -9 0
-5 8 -9 0
5 8 9 0
-5 -8 9 0
-11 9 0
-11 10 0
-9 -10 11 0
12 1 0
12 11 0
-1 -11 -12 0
-13 14 -15 0
13 -14 -15 0
-13 -14 15 0
13 14 15 0
-17 10 0
-17 -16 0
-10 16 17 0
17 18 -19 0
-17 -18 -19 0
17 -18 19 0
-17 18 19 0
20 15 0
20 -19 0
-15 19 -20 0
21 12 0
21 20 0
-12 -20 -21 0
-23 10 0
-23 -22 0
-10 22 23 0
26 -24 0
26 25 0
24 -25 -26 0
23 26 -27 0
-23 -26 -27 0
23 -26 27 0
-23 26 27 0
-10 -18 -28 0
10 18 -28 0
-10 18 28 0
10 -18 28 0
-28 14 -29 0
28 -14 -29 0
-28 -14 29 0
28 14 29 0
30 -18 0
30 -6 0
18 6 -30 0
-29 30 -31 0
29 -30 -31 0
-29 -30 31 0
29 30 31 0
18 -16 -32 0
-18 16 -32 0
18 16 32 0
-18 -16 32 0
2 14 -33 0
-2 -14 -33 0
2 -14 33 0
-2 14 33 0
-34 -33 0
-34 2 0
33 -2 34 0
-35 -32 0
-35 34 0
32 -34 35 0
-36 4 0
-36 -16 0
-4 16 36 0
-35 -36 -37 0
35 36 -37 0
-35 36 37 0
35 -36 37 0
31 37 -38 0
-31 -37 -38 0
31 -37 38 0
-31 37 38 0
-39 -38 0
-39 -25 0
38 25 39 0
40 27 0
40 -39 0
-27 39 -40 0
41 -21 0
41 40 0
21 -40 -41 0
-30 -33 -42 0
30 33 -42 0
-30 33 42 0
30 -33 42 0
-10 -25 -43 0
10 25 -43 0
-10 25 43 0
10 -25 43 0
-44 29 0
-44 43 0
-29 -43 44 0
-45 -42 0
-45 44 0
42 -44 45 0
46 -2 0
46 -22 0
2 22 -46 0
45 46 -47 0
-45 -46 -47 0
45 -46 47 0
-45 46 47 0
-48 -23 0
-48 15 0
23 -15 48 0
49 48 0
49 27 0
-48 -27 -49 0
50 -49 0
50 10 0
49 -10 -50 0
-47 -50 -51 0
47 50 -51 0
-47 50 51 0
47 -50 51 0
52 -38 0
52 -1 0
38 1 -52 0
-22 13 -53 0
22 -13 -53 0
-22 -13 53 0
22 13 53 0
-54 -33 0
-54 -53 0
33 53 54 0
-55 -54 0
-55 -35 0
54 35 55 0
-55 -9 -56 0
55 9 -56 0
-55 9 56 0
55 -9 56 0
24 43 -57 0
-24 -43 -57 0
24 -43 57 0
-24 43 57 0
-58 56 0
-58 -57 0
-56 57 58 0
59 -18 0
59 37 0
18 -37 -59 0
-60 58 0
-60 -59 0
-58 59 60 0
17 1 -61 0
-17 -1 -61 0
17 -1 61 0
-17 1 61 0
-62 -60 0
-62 -61 0
60 61 62 0
52 -62 -63 0
-52 62 -63 0
52 62 63 0
-52 -62 63 0
-65 22 0
-65 -24 0
-22 24 65 0
66 64 0
66 -65 0
-64 65 -66 0
67 3 0
67 -25 0
-3 25 -67 0
-68 66 0
-68 -67 0
-66 67 68 0
-69 37 0
-69 -65 0
-37 65 69 0
68 69 -70 0
-68 -69 -70 0
68 -69 70 0
-68 69 70 0
-71 10 0
-71 -2 0
-10 2 71 0
-70 71 -72 0
70 -71 -72 0
-70 -71 72 0
70 71 72 0
-73 63 0
-73 72 0
-63 -72 73 0
-74 51 0
-74 -73 0
-51 73 74 0
75 41 0
75 74 0
-41 -74 -75 0
-76 -17 0
-76 -27 0
17 27 76 0
76 -2 -77 0
-76 2 -77 0
76 2 77 0
-76 -2 77 0
-18 77 -78 0
18 -77 -78 0
-18 -77 78 0
18 77 78 0
78 -10 -79 0
-78 10 -79 0
78 10 79 0
-78 -10 79 0
-80 14 0
-80 35 0
-14 -35 80 0
-81 -80 0
-81 -6 0
80 6 81 0
-82 23 0
-82 -25 0
-23 25 82 0
83 81 0
83 -82 0
-81 82 -83 0
-79 -83 -84 0
79 83 -84 0
-79 83 84 0
79 -83 84 0
29 65 -85 0
-29 -65 -85 0
29 -65 85 0
-29 65 85 0
-38 85 -86 0
38 -85 -86 0
-38 -85 86 0
38 85 86 0
-84 86 -87 0
84 -86 -87 0
-84 -86 87 0
84 86 87 0
-88 2 0
-88 4 0
-2 -4 88 0
89 88 0
89 -7 0
-88 7 -89 0
90 -48 0
90 89 0
48 -89 -90 0
-91 -38 0
-91 -90 0
38 90 91 0
28 32 -92 0
-28 -32 -92 0
28 -32 92 0
-28 32 92 0
55 -92 -93 0
-55 92 -93 0
55 92 93 0
-55 -92 93 0
91 -93 -94 0
-91 93 -94 0
91 93 94 0
-91 -93 94 0
95 88 0
95 28 0
-88 -28 -95 0
96 17 0
96 -29 0
-17 29 -96 0
14 -96 -97 0
-14 96 -97 0
14 96 97 0
-14 -96 97 0
98 -95 0
98 97 0
95 -97 -98 0
-99 94 0
-99 -98 0
-94 98 99 0
100 -13 0
100 25 0
13 -25 -100 0
-101 65 0
-101 -53 0
-65 53 101 0
-102 27 0
-102 -15 0
-27 15 102 0
103 -101 0
103 102 0
101 -102 -103 0
104 -100 0
104 -103 0
100 103 -104 0
-99 104 -105 0
99 -104 -105 0
-99 -104 105 0
99 104 105 0
-87 -105 -106 0
87 105 -106 0
-87 105 106 0
87 -105 106 0
-107 75 0
-107 -106 0
-75 106 107 0
-92 26 63 -24 0
101 -72 76 10 12 46 0
25 11 -18 0
68 -63 0
66 -70 -89 0
-9 -48 62 0
-72 44 97 0
35 -3 0
36 73 -9 0
99 101 0
20 107 -58 0
7 60 0
-102 -46 -33 43 0
89 -43 -23 0
-105 85 65 22 0
6 -56 83 0
31 37 75 -89 0
16 -56 -60 0
-14 16 91 -26 57 0
55 -88 -98 -27 29 0
-103 80 46 -59 -97 0
58 -50 -47 16 -96 40 0
-10 43 -84 -72 0
-71 -18 0
-103 40 -106 -47 25 0
87 -3 -1 0
-98 85 -16 89 51 0
95 -37 -12 0
81 -9 28 0
-94 27 -92 79 -23 0
-106 -17 -97 73 6 0
-71 -39 51 0
-106 -41 -39 0
-4 -33 102 2 -79 0
-43 -27 -25 -65 -45 0
37 -100 0
-96 4 0
-21 -9 49 0
4 15 22 -50 40 0
11 66 -38 0
-33 52 17 104 -79 -31 0
-105 -91 -89 -10 -80 0
-85 -44 22 -59 -95 -42 0
101 84 95 59 -88 0
-75 30 -18 80 0
84 -42 0
5 -48 105 84 -44 -104 0
-68 -31 -40 0
95 65 2 10 -13 0
59 -14 -17 0
-89 -70 -107 26 0
-30 7 -21 0
-31 -92 49 0
45 -43 -80 88 49 0
-80 17 99 104 107 -1 0
2 75 0
72 32 68 0
-85 81 0
-13 12 73 0
-81 104 -99 -11 -63 0
-14 -4 0
14 -103 -77 -9 -53 0
70 21 0
107 0
